N=30;
start=[|
0, 0, 14, 25, 5, 23, 15, 16, 21, 3, 0, 2, 0, 24, 0, 26, 0, 27, 0, 7, 11, 17, 0, 0, 29, 1, 0, 20, 0, 0|
0, 0, 0, 3, 8, 0, 23, 0, 4, 0, 28, 9, 7, 22, 0, 2, 30, 0, 19, 0, 13, 16, 0, 0, 1, 15, 29, 0, 0, 5|
0, 0, 28, 11, 30, 29, 0, 26, 9, 2, 19, 0, 0, 0, 8, 0, 21, 15, 7, 25, 0, 12, 5, 0, 0, 14, 0, 17, 16, 0|
6, 0, 30, 0, 0, 1, 25, 0, 0, 0, 11, 7, 0, 14, 0, 5, 2, 21, 0, 0, 3, 0, 27, 28, 0, 10, 8, 26, 18, 0|
0, 4, 18, 0, 9, 0, 29, 20, 26, 19, 27, 12, 0, 0, 24, 17, 0, 28, 0, 0, 10, 0, 0, 0, 2, 0, 25, 13, 3, 8|
0, 0, 5, 18, 4, 0, 11, 0, 0, 15, 1, 0, 28, 7, 16, 0, 0, 30, 12, 0, 26, 0, 0, 9, 13, 0, 27, 0, 23, 10|
7, 30, 8, 0, 0, 0, 12, 25, 0, 26, 20, 0, 23, 17, 11, 0, 0, 0, 6, 16, 5, 24, 14, 0, 0, 0, 0, 18, 19, 13|
29, 16, 0, 15, 26, 12, 3, 0, 24, 0, 21, 0, 19, 0, 0, 9, 0, 20, 0, 5, 8, 0, 18, 0, 0, 28, 0, 23, 14, 0|
24, 6, 25, 0, 16, 0, 19, 0, 8, 0, 0, 0, 12, 27, 0, 0, 11, 0, 9, 14, 0, 29, 1, 21, 15, 3, 17, 0, 0, 0|
8, 10, 0, 0, 15, 9, 0, 24, 0, 11, 0, 0, 0, 28, 19, 30, 1, 0, 0, 18, 0, 6, 0, 14, 3, 4, 22, 29, 0, 25|
0, 15, 2, 12, 0, 0, 21, 22, 18, 10, 6, 25, 0, 0, 0, 20, 0, 5, 27, 0, 0, 14, 19, 0, 23, 30, 24, 0, 1, 0|
0, 17, 0, 9, 20, 7, 0, 0, 29, 12, 3, 0, 18, 2, 15, 0, 5, 0, 25, 0, 0, 0, 21, 8, 0, 0, 10, 19, 22, 27|
0, 27, 15, 0, 12, 30, 0, 0, 0, 0, 0, 14, 17, 19, 0, 1, 29, 7, 22, 0, 0, 4, 9, 10, 0, 21, 26, 28, 13, 0|
16, 0, 17, 0, 22, 21, 0, 18, 2, 0, 0, 20, 11, 13, 3, 0, 24, 1, 0, 0, 29, 0, 0, 26, 25, 0, 12, 0, 10, 9|
19, 0, 10, 8, 17, 0, 0, 13, 16, 7, 0, 0, 26, 0, 22, 0, 15, 12, 1, 0, 0, 0, 0, 24, 27, 0, 6, 0, 4, 30|
1, 0, 0, 0, 23, 14, 17, 27, 13, 18, 9, 28, 15, 26, 21, 0, 0, 11, 8, 29, 0, 0, 25, 12, 0, 2, 0, 0, 0, 0|
0, 26, 0, 14, 0, 18, 0, 10, 0, 0, 25, 11, 6, 0, 7, 12, 19, 0, 2, 22, 0, 9, 0, 0, 21, 0, 15, 4, 17, 16|
0, 1, 0, 0, 10, 8, 4, 21, 0, 20, 29, 0, 0, 0, 14, 0, 17, 25, 26, 0, 0, 5, 0, 2, 0, 27, 9, 6, 0, 11|
0, 0, 0, 21, 0, 13, 18, 29, 0, 5, 0, 17, 20, 0, 23, 15, 0, 4, 16, 6, 19, 0, 0, 7, 28, 0, 0, 30, 27, 0|
21, 3, 9, 22, 0, 20, 14, 0, 0, 0, 26, 19, 2, 0, 0, 6, 0, 17, 15, 0, 12, 0, 13, 18, 10, 0, 5, 0, 0, 23|
27, 0, 0, 0, 28, 4, 13, 14, 0, 22, 5, 18, 30, 0, 0, 24, 20, 0, 21, 9, 0, 0, 8, 11, 0, 25, 0, 2, 0, 0|
4, 0, 0, 30, 3, 27, 7, 0, 11, 17, 0, 0, 0, 0, 0, 29, 26, 22, 23, 15, 0, 0, 0, 16, 0, 9, 0, 25, 6, 2|
14, 0, 0, 0, 24, 26, 0, 0, 17, 23, 0, 27, 0, 10, 9, 0, 0, 6, 28, 12, 2, 7, 0, 13, 20, 19, 0, 0, 0, 21|
0, 20, 24, 2, 0, 0, 0, 30, 28, 0, 12, 22, 0, 25, 29, 0, 0, 0, 0, 13, 1, 10, 17, 0, 4, 0, 19, 3, 9, 14|
15, 23, 19, 26, 0, 0, 27, 0, 0, 0, 0, 3, 9, 21, 30, 0, 28, 0, 0, 17, 18, 1, 0, 5, 14, 22, 2, 0, 0, 0|
3, 18, 0, 0, 0, 5, 0, 19, 0, 0, 23, 24, 13, 29, 10, 21, 8, 0, 0, 28, 20, 30, 2, 17, 0, 0, 0, 0, 0, 15|
22, 21, 6, 7, 0, 0, 0, 5, 20, 16, 0, 0, 0, 0, 0, 19, 0, 29, 0, 3, 23, 11, 10, 0, 9, 0, 18, 8, 15, 17|
11, 0, 20, 4, 0, 0, 0, 0, 5, 0, 10, 0, 0, 12, 27, 23, 25, 18, 0, 19, 0, 13, 22, 0, 26, 16, 0, 0, 28, 3|
0, 5, 26, 0, 0, 0, 20, 1, 6, 0, 0, 21, 16, 18, 0, 0, 22, 0, 0, 0, 4, 23, 11, 0, 12, 8, 7, 10, 30, 28|
13, 9, 21, 28, 6, 2, 0, 11, 3, 25, 0, 0, 27, 0, 0, 7, 12, 0, 24, 8, 17, 26, 29, 0, 0, 18, 0, 0, 0, 0|];
